c Sudoku solution
p cnf 729 0
136 0
149 0
211 0
237 0
255 0
273 0
385 0
464 0
493 0
528 0
563 0
587 0
592 0
631 0
667 0
718 0
338 0
735 0
757 0
347 0
766 0
774 0
826 0
871 0
799 0
481 0
939 0
833 0
432 0
534 0
869 0
965 0
895 0
817 0
427 0
941 0
721 0
551 0
743 0
782 0
888 0
983 0
958 0
184 0
694 0
153 0
686 0
289 0
372 0
361 0
191 0
396 0
298 0
177 0
168 0
262 0
224 0
246 0
354 0
914 0
922 0
112 0
125 0
844 0
852 0
642 0
659 0
448 0
545 0
456 0
516 0
678 0
579 0
475 0
419 0
615 0
623 0
313 0
329 0
976 0
997 0
